DATASET = "thpack3";
INSTANCE = "002";

WIDTH = 233;
HEIGHT = 220;
LENGTH = 587;

NO_OF_SHAPES = 8;
size = [|
  49,25,21 |
  60,51,41 |
  103,76,64 |
  95,70,62 |
  111,49,26 |
  85,84,72 |
  48,36,31 |
  86,76,38 |
|];

verticality = [|
  0,1,1 |
  1,1,1 |
  1,1,1 |
  1,1,1 |
  0,1,1 |
  1,1,1 |
  1,1,1 |
  0,0,1 |
|];

box_count = [
  16,
  8,
  16,
  18,
  18,
  16,
  17,
  6,
];
